p cnf 180 1141
-1 -2 0
-1 -3 0
-1 -4 0
-1 -5 0
-2 -3 0
-2 -4 0
-2 -5 0
-3 -4 0
-3 -5 0
-4 -5 0
-1 31 0
-1 6 0
-2 32 0
-2 7 0
-3 33 0
-3 8 0
-4 34 0
-4 9 0
-5 35 0
-5 10 0
-6 -7 0
-6 -8 0
-6 -9 0
-6 -10 0
-7 -8 0
-7 -9 0
-7 -10 0
-8 -9 0
-8 -10 0
-9 -10 0
-6 36 1 0
-6 36 11 0
-6 1 11 0
-7 37 2 0
-7 37 12 0
-7 2 12 0
-8 38 3 0
-8 38 13 0
-8 3 13 0
-9 39 4 0
-9 39 14 0
-9 4 14 0
-10 40 5 0
-10 40 15 0
-10 5 15 0
-6 -36 -1 -11 0
-7 -37 -2 -12 0
-8 -38 -3 -13 0
-9 -39 -4 -14 0
-10 -40 -5 -15 0
11 0
-12 0
-13 0
-14 0
-15 0
41 6 16 0
-41 -6 0
-41 -16 0
-6 -16 0
-16 -17 0
-16 -18 0
-16 -19 0
-16 -20 0
-17 -18 0
-17 -19 0
-17 -20 0
-18 -19 0
-18 -20 0
-19 -20 0
-16 46 11 0
-16 46 21 0
-16 11 21 0
-17 47 12 0
-17 47 22 0
-17 12 22 0
-18 48 13 0
-18 48 23 0
-18 13 23 0
-19 49 14 0
-19 49 24 0
-19 14 24 0
-20 50 15 0
-20 50 25 0
-20 15 25 0
-16 -46 -11 -21 0
-17 -47 -12 -22 0
-18 -48 -13 -23 0
-19 -49 -14 -24 0
-20 -50 -15 -25 0
22 0
-21 0
-23 0
-24 0
-25 0
52 17 27 0
-52 -17 0
-52 -27 0
-17 -27 0
28 0
-26 0
-27 0
-29 0
-30 0
58 23 0
-58 -23 0
-31 -32 0
-31 -33 0
-31 -34 0
-31 -35 0
-32 -33 0
-32 -34 0
-32 -35 0
-33 -34 0
-33 -35 0
-34 -35 0
-31 61 1 0
-31 61 36 0
-31 1 36 0
-32 62 2 0
-32 62 37 0
-32 2 37 0
-33 63 3 0
-33 63 38 0
-33 3 38 0
-34 64 4 0
-34 64 39 0
-34 4 39 0
-35 65 5 0
-35 65 40 0
-35 5 40 0
-31 -61 -1 -36 0
-32 -62 -2 -37 0
-33 -63 -3 -38 0
-34 -64 -4 -39 0
-35 -65 -5 -40 0
-36 -37 0
-36 -38 0
-36 -39 0
-36 -40 0
-37 -38 0
-37 -39 0
-37 -40 0
-38 -39 0
-38 -40 0
-39 -40 0
-36 66 6 41 0
-36 66 6 31 0
-36 66 41 31 0
-36 6 41 31 0
-37 67 7 42 0
-37 67 7 32 0
-37 67 42 32 0
-37 7 42 32 0
-38 68 8 43 0
-38 68 8 33 0
-38 68 43 33 0
-38 8 43 33 0
-39 69 9 44 0
-39 69 9 34 0
-39 69 44 34 0
-39 9 44 34 0
-40 70 10 45 0
-40 70 10 35 0
-40 70 45 35 0
-40 10 45 35 0
-36 -66 -6 -41 0
-36 -66 -6 -31 0
-36 -66 -41 -31 0
-36 -6 -41 -31 0
-37 -67 -7 -42 0
-37 -67 -7 -32 0
-37 -67 -42 -32 0
-37 -7 -42 -32 0
-38 -68 -8 -43 0
-38 -68 -8 -33 0
-38 -68 -43 -33 0
-38 -8 -43 -33 0
-39 -69 -9 -44 0
-39 -69 -9 -34 0
-39 -69 -44 -34 0
-39 -9 -44 -34 0
-40 -70 -10 -45 0
-40 -70 -10 -35 0
-40 -70 -45 -35 0
-40 -10 -45 -35 0
-41 -42 0
-41 -43 0
-41 -44 0
-41 -45 0
-42 -43 0
-42 -44 0
-42 -45 0
-43 -44 0
-43 -45 0
-44 -45 0
-41 71 11 46 0
-41 71 11 36 0
-41 71 46 36 0
-41 11 46 36 0
-42 72 12 47 0
-42 72 12 37 0
-42 72 47 37 0
-42 12 47 37 0
-43 73 13 48 0
-43 73 13 38 0
-43 73 48 38 0
-43 13 48 38 0
-44 74 14 49 0
-44 74 14 39 0
-44 74 49 39 0
-44 14 49 39 0
-45 75 15 50 0
-45 75 15 40 0
-45 75 50 40 0
-45 15 50 40 0
-41 -71 -11 -46 0
-41 -71 -11 -36 0
-41 -71 -46 -36 0
-41 -11 -46 -36 0
-42 -72 -12 -47 0
-42 -72 -12 -37 0
-42 -72 -47 -37 0
-42 -12 -47 -37 0
-43 -73 -13 -48 0
-43 -73 -13 -38 0
-43 -73 -48 -38 0
-43 -13 -48 -38 0
-44 -74 -14 -49 0
-44 -74 -14 -39 0
-44 -74 -49 -39 0
-44 -14 -49 -39 0
-45 -75 -15 -50 0
-45 -75 -15 -40 0
-45 -75 -50 -40 0
-45 -15 -50 -40 0
-46 -47 0
-46 -48 0
-46 -49 0
-46 -50 0
-47 -48 0
-47 -49 0
-47 -50 0
-48 -49 0
-48 -50 0
-49 -50 0
-46 76 16 51 0
-46 76 16 41 0
-46 76 51 41 0
-46 16 51 41 0
-47 77 17 52 0
-47 77 17 42 0
-47 77 52 42 0
-47 17 52 42 0
-48 78 18 53 0
-48 78 18 43 0
-48 78 53 43 0
-48 18 53 43 0
-49 79 19 54 0
-49 79 19 44 0
-49 79 54 44 0
-49 19 54 44 0
-50 80 20 55 0
-50 80 20 45 0
-50 80 55 45 0
-50 20 55 45 0
-46 -76 -16 -51 0
-46 -76 -16 -41 0
-46 -76 -51 -41 0
-46 -16 -51 -41 0
-47 -77 -17 -52 0
-47 -77 -17 -42 0
-47 -77 -52 -42 0
-47 -17 -52 -42 0
-48 -78 -18 -53 0
-48 -78 -18 -43 0
-48 -78 -53 -43 0
-48 -18 -53 -43 0
-49 -79 -19 -54 0
-49 -79 -19 -44 0
-49 -79 -54 -44 0
-49 -19 -54 -44 0
-50 -80 -20 -55 0
-50 -80 -20 -45 0
-50 -80 -55 -45 0
-50 -20 -55 -45 0
54 0
-51 0
-52 0
-53 0
-55 0
84 24 59 49 0
-84 -24 0
-84 -59 0
-84 -49 0
-24 -59 0
-24 -49 0
-59 -49 0
-56 -57 0
-56 -58 0
-56 -59 0
-56 -60 0
-57 -58 0
-57 -59 0
-57 -60 0
-58 -59 0
-58 -60 0
-59 -60 0
-56 86 26 0
-56 86 51 0
-56 26 51 0
-57 87 27 0
-57 87 52 0
-57 27 52 0
-58 88 28 0
-58 88 53 0
-58 28 53 0
-59 89 29 0
-59 89 54 0
-59 29 54 0
-60 90 30 0
-60 90 55 0
-60 30 55 0
-56 -86 -26 -51 0
-57 -87 -27 -52 0
-58 -88 -28 -53 0
-59 -89 -29 -54 0
-60 -90 -30 -55 0
-61 -62 0
-61 -63 0
-61 -64 0
-61 -65 0
-62 -63 0
-62 -64 0
-62 -65 0
-63 -64 0
-63 -65 0
-64 -65 0
-61 91 31 0
-61 91 66 0
-61 31 66 0
-62 92 32 0
-62 92 67 0
-62 32 67 0
-63 93 33 0
-63 93 68 0
-63 33 68 0
-64 94 34 0
-64 94 69 0
-64 34 69 0
-65 95 35 0
-65 95 70 0
-65 35 70 0
-61 -91 -31 -66 0
-62 -92 -32 -67 0
-63 -93 -33 -68 0
-64 -94 -34 -69 0
-65 -95 -35 -70 0
-66 -67 0
-66 -68 0
-66 -69 0
-66 -70 0
-67 -68 0
-67 -69 0
-67 -70 0
-68 -69 0
-68 -70 0
-69 -70 0
-66 96 36 71 0
-66 96 36 61 0
-66 96 71 61 0
-66 36 71 61 0
-67 97 37 72 0
-67 97 37 62 0
-67 97 72 62 0
-67 37 72 62 0
-68 98 38 73 0
-68 98 38 63 0
-68 98 73 63 0
-68 38 73 63 0
-69 99 39 74 0
-69 99 39 64 0
-69 99 74 64 0
-69 39 74 64 0
-70 100 40 75 0
-70 100 40 65 0
-70 100 75 65 0
-70 40 75 65 0
-66 -96 -36 -71 0
-66 -96 -36 -61 0
-66 -96 -71 -61 0
-66 -36 -71 -61 0
-67 -97 -37 -72 0
-67 -97 -37 -62 0
-67 -97 -72 -62 0
-67 -37 -72 -62 0
-68 -98 -38 -73 0
-68 -98 -38 -63 0
-68 -98 -73 -63 0
-68 -38 -73 -63 0
-69 -99 -39 -74 0
-69 -99 -39 -64 0
-69 -99 -74 -64 0
-69 -39 -74 -64 0
-70 -100 -40 -75 0
-70 -100 -40 -65 0
-70 -100 -75 -65 0
-70 -40 -75 -65 0
-71 -72 0
-71 -73 0
-71 -74 0
-71 -75 0
-72 -73 0
-72 -74 0
-72 -75 0
-73 -74 0
-73 -75 0
-74 -75 0
-71 101 41 76 0
-71 101 41 66 0
-71 101 76 66 0
-71 41 76 66 0
-72 102 42 77 0
-72 102 42 67 0
-72 102 77 67 0
-72 42 77 67 0
-73 103 43 78 0
-73 103 43 68 0
-73 103 78 68 0
-73 43 78 68 0
-74 104 44 79 0
-74 104 44 69 0
-74 104 79 69 0
-74 44 79 69 0
-75 105 45 80 0
-75 105 45 70 0
-75 105 80 70 0
-75 45 80 70 0
-71 -101 -41 -76 0
-71 -101 -41 -66 0
-71 -101 -76 -66 0
-71 -41 -76 -66 0
-72 -102 -42 -77 0
-72 -102 -42 -67 0
-72 -102 -77 -67 0
-72 -42 -77 -67 0
-73 -103 -43 -78 0
-73 -103 -43 -68 0
-73 -103 -78 -68 0
-73 -43 -78 -68 0
-74 -104 -44 -79 0
-74 -104 -44 -69 0
-74 -104 -79 -69 0
-74 -44 -79 -69 0
-75 -105 -45 -80 0
-75 -105 -45 -70 0
-75 -105 -80 -70 0
-75 -45 -80 -70 0
-76 -77 0
-76 -78 0
-76 -79 0
-76 -80 0
-77 -78 0
-77 -79 0
-77 -80 0
-78 -79 0
-78 -80 0
-79 -80 0
-76 106 46 81 0
-76 106 46 71 0
-76 106 81 71 0
-76 46 81 71 0
-77 107 47 82 0
-77 107 47 72 0
-77 107 82 72 0
-77 47 82 72 0
-78 108 48 83 0
-78 108 48 73 0
-78 108 83 73 0
-78 48 83 73 0
-79 109 49 84 0
-79 109 49 74 0
-79 109 84 74 0
-79 49 84 74 0
-80 110 50 85 0
-80 110 50 75 0
-80 110 85 75 0
-80 50 85 75 0
-76 -106 -46 -81 0
-76 -106 -46 -71 0
-76 -106 -81 -71 0
-76 -46 -81 -71 0
-77 -107 -47 -82 0
-77 -107 -47 -72 0
-77 -107 -82 -72 0
-77 -47 -82 -72 0
-78 -108 -48 -83 0
-78 -108 -48 -73 0
-78 -108 -83 -73 0
-78 -48 -83 -73 0
-79 -109 -49 -84 0
-79 -109 -49 -74 0
-79 -109 -84 -74 0
-79 -49 -84 -74 0
-80 -110 -50 -85 0
-80 -110 -50 -75 0
-80 -110 -85 -75 0
-80 -50 -85 -75 0
-81 -82 0
-81 -83 0
-81 -84 0
-81 -85 0
-82 -83 0
-82 -84 0
-82 -85 0
-83 -84 0
-83 -85 0
-84 -85 0
-81 111 51 86 0
-81 111 51 76 0
-81 111 86 76 0
-81 51 86 76 0
-82 112 52 87 0
-82 112 52 77 0
-82 112 87 77 0
-82 52 87 77 0
-83 113 53 88 0
-83 113 53 78 0
-83 113 88 78 0
-83 53 88 78 0
-84 114 54 89 0
-84 114 54 79 0
-84 114 89 79 0
-84 54 89 79 0
-85 115 55 90 0
-85 115 55 80 0
-85 115 90 80 0
-85 55 90 80 0
-81 -111 -51 -86 0
-81 -111 -51 -76 0
-81 -111 -86 -76 0
-81 -51 -86 -76 0
-82 -112 -52 -87 0
-82 -112 -52 -77 0
-82 -112 -87 -77 0
-82 -52 -87 -77 0
-83 -113 -53 -88 0
-83 -113 -53 -78 0
-83 -113 -88 -78 0
-83 -53 -88 -78 0
-84 -114 -54 -89 0
-84 -114 -54 -79 0
-84 -114 -89 -79 0
-84 -54 -89 -79 0
-85 -115 -55 -90 0
-85 -115 -55 -80 0
-85 -115 -90 -80 0
-85 -55 -90 -80 0
-86 -87 0
-86 -88 0
-86 -89 0
-86 -90 0
-87 -88 0
-87 -89 0
-87 -90 0
-88 -89 0
-88 -90 0
-89 -90 0
-86 116 56 0
-86 116 81 0
-86 56 81 0
-87 117 57 0
-87 117 82 0
-87 57 82 0
-88 118 58 0
-88 118 83 0
-88 58 83 0
-89 119 59 0
-89 119 84 0
-89 59 84 0
-90 120 60 0
-90 120 85 0
-90 60 85 0
-86 -116 -56 -81 0
-87 -117 -57 -82 0
-88 -118 -58 -83 0
-89 -119 -59 -84 0
-90 -120 -60 -85 0
-91 -92 0
-91 -93 0
-91 -94 0
-91 -95 0
-92 -93 0
-92 -94 0
-92 -95 0
-93 -94 0
-93 -95 0
-94 -95 0
-91 121 61 0
-91 121 96 0
-91 61 96 0
-92 122 62 0
-92 122 97 0
-92 62 97 0
-93 123 63 0
-93 123 98 0
-93 63 98 0
-94 124 64 0
-94 124 99 0
-94 64 99 0
-95 125 65 0
-95 125 100 0
-95 65 100 0
-91 -121 -61 -96 0
-92 -122 -62 -97 0
-93 -123 -63 -98 0
-94 -124 -64 -99 0
-95 -125 -65 -100 0
-96 -97 0
-96 -98 0
-96 -99 0
-96 -100 0
-97 -98 0
-97 -99 0
-97 -100 0
-98 -99 0
-98 -100 0
-99 -100 0
-96 126 66 101 0
-96 126 66 91 0
-96 126 101 91 0
-96 66 101 91 0
-97 127 67 102 0
-97 127 67 92 0
-97 127 102 92 0
-97 67 102 92 0
-98 128 68 103 0
-98 128 68 93 0
-98 128 103 93 0
-98 68 103 93 0
-99 129 69 104 0
-99 129 69 94 0
-99 129 104 94 0
-99 69 104 94 0
-100 130 70 105 0
-100 130 70 95 0
-100 130 105 95 0
-100 70 105 95 0
-96 -126 -66 -101 0
-96 -126 -66 -91 0
-96 -126 -101 -91 0
-96 -66 -101 -91 0
-97 -127 -67 -102 0
-97 -127 -67 -92 0
-97 -127 -102 -92 0
-97 -67 -102 -92 0
-98 -128 -68 -103 0
-98 -128 -68 -93 0
-98 -128 -103 -93 0
-98 -68 -103 -93 0
-99 -129 -69 -104 0
-99 -129 -69 -94 0
-99 -129 -104 -94 0
-99 -69 -104 -94 0
-100 -130 -70 -105 0
-100 -130 -70 -95 0
-100 -130 -105 -95 0
-100 -70 -105 -95 0
-101 -102 0
-101 -103 0
-101 -104 0
-101 -105 0
-102 -103 0
-102 -104 0
-102 -105 0
-103 -104 0
-103 -105 0
-104 -105 0
-101 131 71 106 0
-101 131 71 96 0
-101 131 106 96 0
-101 71 106 96 0
-102 132 72 107 0
-102 132 72 97 0
-102 132 107 97 0
-102 72 107 97 0
-103 133 73 108 0
-103 133 73 98 0
-103 133 108 98 0
-103 73 108 98 0
-104 134 74 109 0
-104 134 74 99 0
-104 134 109 99 0
-104 74 109 99 0
-105 135 75 110 0
-105 135 75 100 0
-105 135 110 100 0
-105 75 110 100 0
-101 -131 -71 -106 0
-101 -131 -71 -96 0
-101 -131 -106 -96 0
-101 -71 -106 -96 0
-102 -132 -72 -107 0
-102 -132 -72 -97 0
-102 -132 -107 -97 0
-102 -72 -107 -97 0
-103 -133 -73 -108 0
-103 -133 -73 -98 0
-103 -133 -108 -98 0
-103 -73 -108 -98 0
-104 -134 -74 -109 0
-104 -134 -74 -99 0
-104 -134 -109 -99 0
-104 -74 -109 -99 0
-105 -135 -75 -110 0
-105 -135 -75 -100 0
-105 -135 -110 -100 0
-105 -75 -110 -100 0
108 0
-106 0
-107 0
-109 0
-110 0
138 78 113 103 0
-138 -78 0
-138 -113 0
-138 -103 0
-78 -113 0
-78 -103 0
-113 -103 0
-111 -112 0
-111 -113 0
-111 -114 0
-111 -115 0
-112 -113 0
-112 -114 0
-112 -115 0
-113 -114 0
-113 -115 0
-114 -115 0
-111 141 81 116 0
-111 141 81 106 0
-111 141 116 106 0
-111 81 116 106 0
-112 142 82 117 0
-112 142 82 107 0
-112 142 117 107 0
-112 82 117 107 0
-113 143 83 118 0
-113 143 83 108 0
-113 143 118 108 0
-113 83 118 108 0
-114 144 84 119 0
-114 144 84 109 0
-114 144 119 109 0
-114 84 119 109 0
-115 145 85 120 0
-115 145 85 110 0
-115 145 120 110 0
-115 85 120 110 0
-111 -141 -81 -116 0
-111 -141 -81 -106 0
-111 -141 -116 -106 0
-111 -81 -116 -106 0
-112 -142 -82 -117 0
-112 -142 -82 -107 0
-112 -142 -117 -107 0
-112 -82 -117 -107 0
-113 -143 -83 -118 0
-113 -143 -83 -108 0
-113 -143 -118 -108 0
-113 -83 -118 -108 0
-114 -144 -84 -119 0
-114 -144 -84 -109 0
-114 -144 -119 -109 0
-114 -84 -119 -109 0
-115 -145 -85 -120 0
-115 -145 -85 -110 0
-115 -145 -120 -110 0
-115 -85 -120 -110 0
-116 -117 0
-116 -118 0
-116 -119 0
-116 -120 0
-117 -118 0
-117 -119 0
-117 -120 0
-118 -119 0
-118 -120 0
-119 -120 0
-116 146 86 0
-116 146 111 0
-116 86 111 0
-117 147 87 0
-117 147 112 0
-117 87 112 0
-118 148 88 0
-118 148 113 0
-118 88 113 0
-119 149 89 0
-119 149 114 0
-119 89 114 0
-120 150 90 0
-120 150 115 0
-120 90 115 0
-116 -146 -86 -111 0
-117 -147 -87 -112 0
-118 -148 -88 -113 0
-119 -149 -89 -114 0
-120 -150 -90 -115 0
121 0
-122 0
-123 0
-124 0
-125 0
151 91 126 0
-151 -91 0
-151 -126 0
-91 -126 0
-126 -127 0
-126 -128 0
-126 -129 0
-126 -130 0
-127 -128 0
-127 -129 0
-127 -130 0
-128 -129 0
-128 -130 0
-129 -130 0
-126 156 96 131 0
-126 156 96 121 0
-126 156 131 121 0
-126 96 131 121 0
-127 157 97 132 0
-127 157 97 122 0
-127 157 132 122 0
-127 97 132 122 0
-128 158 98 133 0
-128 158 98 123 0
-128 158 133 123 0
-128 98 133 123 0
-129 159 99 134 0
-129 159 99 124 0
-129 159 134 124 0
-129 99 134 124 0
-130 160 100 135 0
-130 160 100 125 0
-130 160 135 125 0
-130 100 135 125 0
-126 -156 -96 -131 0
-126 -156 -96 -121 0
-126 -156 -131 -121 0
-126 -96 -131 -121 0
-127 -157 -97 -132 0
-127 -157 -97 -122 0
-127 -157 -132 -122 0
-127 -97 -132 -122 0
-128 -158 -98 -133 0
-128 -158 -98 -123 0
-128 -158 -133 -123 0
-128 -98 -133 -123 0
-129 -159 -99 -134 0
-129 -159 -99 -124 0
-129 -159 -134 -124 0
-129 -99 -134 -124 0
-130 -160 -100 -135 0
-130 -160 -100 -125 0
-130 -160 -135 -125 0
-130 -100 -135 -125 0
-131 -132 0
-131 -133 0
-131 -134 0
-131 -135 0
-132 -133 0
-132 -134 0
-132 -135 0
-133 -134 0
-133 -135 0
-134 -135 0
-131 161 101 136 0
-131 161 101 126 0
-131 161 136 126 0
-131 101 136 126 0
-132 162 102 137 0
-132 162 102 127 0
-132 162 137 127 0
-132 102 137 127 0
-133 163 103 138 0
-133 163 103 128 0
-133 163 138 128 0
-133 103 138 128 0
-134 164 104 139 0
-134 164 104 129 0
-134 164 139 129 0
-134 104 139 129 0
-135 165 105 140 0
-135 165 105 130 0
-135 165 140 130 0
-135 105 140 130 0
-131 -161 -101 -136 0
-131 -161 -101 -126 0
-131 -161 -136 -126 0
-131 -101 -136 -126 0
-132 -162 -102 -137 0
-132 -162 -102 -127 0
-132 -162 -137 -127 0
-132 -102 -137 -127 0
-133 -163 -103 -138 0
-133 -163 -103 -128 0
-133 -163 -138 -128 0
-133 -103 -138 -128 0
-134 -164 -104 -139 0
-134 -164 -104 -129 0
-134 -164 -139 -129 0
-134 -104 -139 -129 0
-135 -165 -105 -140 0
-135 -165 -105 -130 0
-135 -165 -140 -130 0
-135 -105 -140 -130 0
140 0
-136 0
-137 0
-138 0
-139 0
170 110 145 135 0
-170 -110 0
-170 -145 0
-170 -135 0
-110 -145 0
-110 -135 0
-145 -135 0
-141 -142 0
-141 -143 0
-141 -144 0
-141 -145 0
-142 -143 0
-142 -144 0
-142 -145 0
-143 -144 0
-143 -145 0
-144 -145 0
-141 171 111 146 0
-141 171 111 136 0
-141 171 146 136 0
-141 111 146 136 0
-142 172 112 147 0
-142 172 112 137 0
-142 172 147 137 0
-142 112 147 137 0
-143 173 113 148 0
-143 173 113 138 0
-143 173 148 138 0
-143 113 148 138 0
-144 174 114 149 0
-144 174 114 139 0
-144 174 149 139 0
-144 114 149 139 0
-145 175 115 150 0
-145 175 115 140 0
-145 175 150 140 0
-145 115 150 140 0
-141 -171 -111 -146 0
-141 -171 -111 -136 0
-141 -171 -146 -136 0
-141 -111 -146 -136 0
-142 -172 -112 -147 0
-142 -172 -112 -137 0
-142 -172 -147 -137 0
-142 -112 -147 -137 0
-143 -173 -113 -148 0
-143 -173 -113 -138 0
-143 -173 -148 -138 0
-143 -113 -148 -138 0
-144 -174 -114 -149 0
-144 -174 -114 -139 0
-144 -174 -149 -139 0
-144 -114 -149 -139 0
-145 -175 -115 -150 0
-145 -175 -115 -140 0
-145 -175 -150 -140 0
-145 -115 -150 -140 0
-146 -147 0
-146 -148 0
-146 -149 0
-146 -150 0
-147 -148 0
-147 -149 0
-147 -150 0
-148 -149 0
-148 -150 0
-149 -150 0
-146 176 116 0
-146 176 141 0
-146 116 141 0
-147 177 117 0
-147 177 142 0
-147 117 142 0
-148 178 118 0
-148 178 143 0
-148 118 143 0
-149 179 119 0
-149 179 144 0
-149 119 144 0
-150 180 120 0
-150 180 145 0
-150 120 145 0
-146 -176 -116 -141 0
-147 -177 -117 -142 0
-148 -178 -118 -143 0
-149 -179 -119 -144 0
-150 -180 -120 -145 0
152 0
-151 0
-153 0
-154 0
-155 0
122 157 0
-122 -157 0
-156 -157 0
-156 -158 0
-156 -159 0
-156 -160 0
-157 -158 0
-157 -159 0
-157 -160 0
-158 -159 0
-158 -160 0
-159 -160 0
-156 151 126 0
-156 126 161 0
-156 151 161 0
-157 152 127 0
-157 127 162 0
-157 152 162 0
-158 153 128 0
-158 128 163 0
-158 153 163 0
-159 154 129 0
-159 129 164 0
-159 154 164 0
-160 155 130 0
-160 130 165 0
-160 155 165 0
-156 -126 -151 -161 0
-157 -127 -152 -162 0
-158 -128 -153 -163 0
-159 -129 -154 -164 0
-160 -130 -155 -165 0
-161 -162 0
-161 -163 0
-161 -164 0
-161 -165 0
-162 -163 0
-162 -164 0
-162 -165 0
-163 -164 0
-163 -165 0
-164 -165 0
-161 156 131 0
-161 131 166 0
-161 156 166 0
-162 157 132 0
-162 132 167 0
-162 157 167 0
-163 158 133 0
-163 133 168 0
-163 158 168 0
-164 159 134 0
-164 134 169 0
-164 159 169 0
-165 160 135 0
-165 135 170 0
-165 160 170 0
-161 -131 -156 -166 0
-162 -132 -157 -167 0
-163 -133 -158 -168 0
-164 -134 -159 -169 0
-165 -135 -160 -170 0
-166 -167 0
-166 -168 0
-166 -169 0
-166 -170 0
-167 -168 0
-167 -169 0
-167 -170 0
-168 -169 0
-168 -170 0
-169 -170 0
-166 161 136 0
-166 136 171 0
-166 161 171 0
-167 162 137 0
-167 137 172 0
-167 162 172 0
-168 163 138 0
-168 138 173 0
-168 163 173 0
-169 164 139 0
-169 139 174 0
-169 164 174 0
-170 165 140 0
-170 140 175 0
-170 165 175 0
-166 -136 -161 -171 0
-167 -137 -162 -172 0
-168 -138 -163 -173 0
-169 -139 -164 -174 0
-170 -140 -165 -175 0
174 0
-171 0
-172 0
-173 0
-175 0
169 144 179 0
-169 -144 0
-169 -179 0
-144 -179 0
180 0
-176 0
-177 0
-178 0
-179 0
150 175 0
-150 -175 0
31 36 41 46 56 0
61 66 71 76 81 86 0
91 96 101 111 116 0
6 36 66 96 126 156 0
32 37 42 47 57 0
62 67 72 77 82 87 0
92 97 102 112 117 0
127 132 142 147 0
7 37 67 97 127 157 0
42 72 102 132 162 0
17 47 77 167 0
33 38 43 48 58 0
63 68 73 78 83 88 0
83 113 143 0
64 69 74 79 84 89 0
94 99 104 114 119 0
129 134 144 149 0
85 115 145 0